; TLFL 0.2 claim passport mirror.
; Scope: claim passport and proof-state certification, not empirical truth.

(set-logic QF_UF)

(declare-fun claim_presented () Bool)
(declare-fun lean_kernel_trace () Bool)
(declare-fun z3_trace () Bool)
(declare-fun vampire_trace () Bool)
(declare-fun e_trace () Bool)
(declare-fun tlfl_classification_trace () Bool)
(declare-fun nonclaim_guard_trace () Bool)
(declare-fun proof_self_model () Bool)

(declare-fun claim_passport () Bool)
(declare-fun allowed_claim_ceiling () Bool)
(declare-fun forbidden_jump_map () Bool)
(declare-fun proof_state_certification () Bool)

(declare-fun complete_claim_passport_input () Bool)
(declare-fun missing_tlfl_classification_input () Bool)
(declare-fun verdict_pass () Bool)
(declare-fun verdict_fail () Bool)
(declare-fun certified_ceiling () Bool)
(declare-fun unadmitted_ceiling () Bool)
(declare-fun no_forbidden_jump_request () Bool)
(declare-fun forbidden_jump_request () Bool)
(declare-fun proof_state_certified_status () Bool)
(declare-fun unadmitted_status () Bool)
(declare-fun overclaim_blocked_status () Bool)
(declare-fun claim_passport_certificate () Bool)
(declare-fun public_certificate_surface () Bool)
(declare-fun public_surface_certified_status () Bool)
(declare-fun public_surface_forbidden_jump_map () Bool)
(declare-fun claim_passport_audit_sheet () Bool)
(declare-fun public_audit_surface () Bool)
(declare-fun audit_sheet_external_proof_layer () Bool)
(declare-fun audit_sheet_certified_status () Bool)
(declare-fun audit_sheet_forbidden_jump_map () Bool)
(declare-fun claim_passport_review_gate () Bool)
(declare-fun review_gate_public_audit_surface () Bool)
(declare-fun review_gate_external_proof_layer () Bool)
(declare-fun review_gate_certified_status () Bool)
(declare-fun review_gate_allowed_ceiling () Bool)
(declare-fun review_gate_forbidden_jump_map () Bool)
(declare-fun review_ready_surface () Bool)
(declare-fun external_mirror_verified () Bool)
(declare-fun public_docs_synchronized () Bool)
(declare-fun claim_passport_release_gate () Bool)
(declare-fun release_gate_review_ready () Bool)
(declare-fun release_gate_external_mirror_verified () Bool)
(declare-fun release_gate_public_docs_synchronized () Bool)
(declare-fun release_gate_certified_status () Bool)
(declare-fun release_gate_allowed_ceiling () Bool)
(declare-fun release_gate_forbidden_jump_map () Bool)
(declare-fun release_candidate_surface () Bool)

(declare-fun empirical_truth () Bool)
(declare-fun physical_validation () Bool)
(declare-fun consciousness () Bool)
(declare-fun empirical_closure () Bool)

(assert
  (= claim_passport
     (and claim_presented
          lean_kernel_trace
          z3_trace
          vampire_trace
          e_trace
          tlfl_classification_trace
          nonclaim_guard_trace
          proof_self_model)))

(assert (=> claim_passport allowed_claim_ceiling))
(assert (=> claim_passport forbidden_jump_map))
(assert (=> claim_passport proof_state_certification))
(assert (=> complete_claim_passport_input verdict_pass))
(assert (=> missing_tlfl_classification_input verdict_fail))
(assert (=> verdict_pass certified_ceiling))
(assert (=> verdict_fail unadmitted_ceiling))
(assert (=> (and verdict_pass no_forbidden_jump_request)
            proof_state_certified_status))
(assert (=> (and verdict_fail no_forbidden_jump_request)
            unadmitted_status))
(assert (=> forbidden_jump_request overclaim_blocked_status))
(assert (=> (and claim_passport
                 proof_state_certification
                 proof_state_certified_status
                 forbidden_jump_map)
            claim_passport_certificate))
(assert (=> claim_passport_certificate public_certificate_surface))
(assert (=> public_certificate_surface public_surface_certified_status))
(assert (=> public_certificate_surface public_surface_forbidden_jump_map))
(assert (=> public_certificate_surface claim_passport_audit_sheet))
(assert (=> claim_passport_audit_sheet public_audit_surface))
(assert (=> claim_passport_audit_sheet audit_sheet_external_proof_layer))
(assert (=> claim_passport_audit_sheet audit_sheet_certified_status))
(assert (=> claim_passport_audit_sheet audit_sheet_forbidden_jump_map))
(assert (=> (and claim_passport_audit_sheet
                 audit_sheet_external_proof_layer
                 audit_sheet_certified_status
                 audit_sheet_forbidden_jump_map
                 certified_ceiling)
            claim_passport_review_gate))
(assert (=> claim_passport_review_gate review_gate_public_audit_surface))
(assert (=> claim_passport_review_gate review_gate_external_proof_layer))
(assert (=> claim_passport_review_gate review_gate_certified_status))
(assert (=> claim_passport_review_gate review_gate_allowed_ceiling))
(assert (=> claim_passport_review_gate review_gate_forbidden_jump_map))
(assert (=> claim_passport_review_gate review_ready_surface))
(assert (=> (and claim_passport_review_gate
                 review_ready_surface
                 review_gate_external_proof_layer
                 review_gate_certified_status
                 review_gate_allowed_ceiling
                 review_gate_forbidden_jump_map
                 external_mirror_verified
                 public_docs_synchronized)
            claim_passport_release_gate))
(assert (=> claim_passport_release_gate release_gate_review_ready))
(assert (=> claim_passport_release_gate release_gate_external_mirror_verified))
(assert (=> claim_passport_release_gate release_gate_public_docs_synchronized))
(assert (=> claim_passport_release_gate release_gate_certified_status))
(assert (=> claim_passport_release_gate release_gate_allowed_ceiling))
(assert (=> claim_passport_release_gate release_gate_forbidden_jump_map))
(assert (=> claim_passport_release_gate release_candidate_surface))

; Theorem: complete claim evidence + proof self-model gives claim passport.
(push)
(assert claim_presented)
(assert lean_kernel_trace)
(assert z3_trace)
(assert vampire_trace)
(assert e_trace)
(assert tlfl_classification_trace)
(assert nonclaim_guard_trace)
(assert proof_self_model)
(assert (not claim_passport))
(check-sat)
(pop)

; Theorem: claim passport gives allowed claim ceiling.
(push)
(assert claim_passport)
(assert (not allowed_claim_ceiling))
(check-sat)
(pop)

; Theorem: claim passport gives forbidden jump map.
(push)
(assert claim_passport)
(assert (not forbidden_jump_map))
(check-sat)
(pop)

; Theorem: claim passport gives proof-state certification.
(push)
(assert claim_passport)
(assert (not proof_state_certification))
(check-sat)
(pop)

; Theorem: complete claim passport input gives pass verdict.
(push)
(assert complete_claim_passport_input)
(assert (not verdict_pass))
(check-sat)
(pop)

; Theorem: missing TLFL classification gives fail verdict.
(push)
(assert missing_tlfl_classification_input)
(assert (not verdict_fail))
(check-sat)
(pop)

; Theorem: pass verdict gives certified ceiling.
(push)
(assert verdict_pass)
(assert (not certified_ceiling))
(check-sat)
(pop)

; Theorem: fail verdict gives unadmitted ceiling.
(push)
(assert verdict_fail)
(assert (not unadmitted_ceiling))
(check-sat)
(pop)

; Theorem: pass with no forbidden jump gives proof-state-certified status.
(push)
(assert verdict_pass)
(assert no_forbidden_jump_request)
(assert (not proof_state_certified_status))
(check-sat)
(pop)

; Theorem: fail with no forbidden jump gives unadmitted status.
(push)
(assert verdict_fail)
(assert no_forbidden_jump_request)
(assert (not unadmitted_status))
(check-sat)
(pop)

; Theorem: forbidden jump request gives overclaim-blocked status.
(push)
(assert forbidden_jump_request)
(assert (not overclaim_blocked_status))
(check-sat)
(pop)

; Theorem: certified passport bundle gives claim-passport certificate.
(push)
(assert claim_passport)
(assert proof_state_certification)
(assert proof_state_certified_status)
(assert forbidden_jump_map)
(assert (not claim_passport_certificate))
(check-sat)
(pop)

; Theorem: claim-passport certificate gives public certificate surface.
(push)
(assert claim_passport_certificate)
(assert (not public_certificate_surface))
(check-sat)
(pop)

; Theorem: public certificate surface gives certified status.
(push)
(assert public_certificate_surface)
(assert (not public_surface_certified_status))
(check-sat)
(pop)

; Theorem: public certificate surface gives forbidden-jump map.
(push)
(assert public_certificate_surface)
(assert (not public_surface_forbidden_jump_map))
(check-sat)
(pop)

; Theorem: public certificate surface gives claim-passport audit sheet.
(push)
(assert public_certificate_surface)
(assert (not claim_passport_audit_sheet))
(check-sat)
(pop)

; Theorem: claim-passport audit sheet gives public audit surface.
(push)
(assert claim_passport_audit_sheet)
(assert (not public_audit_surface))
(check-sat)
(pop)

; Theorem: claim-passport audit sheet records external proof layer.
(push)
(assert claim_passport_audit_sheet)
(assert (not audit_sheet_external_proof_layer))
(check-sat)
(pop)

; Theorem: claim-passport audit sheet gives certified-status view.
(push)
(assert claim_passport_audit_sheet)
(assert (not audit_sheet_certified_status))
(check-sat)
(pop)

; Theorem: claim-passport audit sheet gives forbidden-jump view.
(push)
(assert claim_passport_audit_sheet)
(assert (not audit_sheet_forbidden_jump_map))
(check-sat)
(pop)

; Theorem: audit sheet bundle gives claim-passport review gate.
(push)
(assert claim_passport_audit_sheet)
(assert audit_sheet_external_proof_layer)
(assert audit_sheet_certified_status)
(assert audit_sheet_forbidden_jump_map)
(assert certified_ceiling)
(assert (not claim_passport_review_gate))
(check-sat)
(pop)

; Theorem: review gate gives public audit surface.
(push)
(assert claim_passport_review_gate)
(assert (not review_gate_public_audit_surface))
(check-sat)
(pop)

; Theorem: review gate records external proof layer.
(push)
(assert claim_passport_review_gate)
(assert (not review_gate_external_proof_layer))
(check-sat)
(pop)

; Theorem: review gate gives certified status.
(push)
(assert claim_passport_review_gate)
(assert (not review_gate_certified_status))
(check-sat)
(pop)

; Theorem: review gate gives allowed ceiling.
(push)
(assert claim_passport_review_gate)
(assert (not review_gate_allowed_ceiling))
(check-sat)
(pop)

; Theorem: review gate gives forbidden-jump map.
(push)
(assert claim_passport_review_gate)
(assert (not review_gate_forbidden_jump_map))
(check-sat)
(pop)

; Theorem: review gate gives review-ready surface.
(push)
(assert claim_passport_review_gate)
(assert (not review_ready_surface))
(check-sat)
(pop)

; Theorem: review gate bundle gives claim-passport release gate.
(push)
(assert claim_passport_review_gate)
(assert review_ready_surface)
(assert review_gate_external_proof_layer)
(assert review_gate_certified_status)
(assert review_gate_allowed_ceiling)
(assert review_gate_forbidden_jump_map)
(assert external_mirror_verified)
(assert public_docs_synchronized)
(assert (not claim_passport_release_gate))
(check-sat)
(pop)

; Theorem: release gate keeps review-ready status.
(push)
(assert claim_passport_release_gate)
(assert (not release_gate_review_ready))
(check-sat)
(pop)

; Theorem: release gate records external mirror verification.
(push)
(assert claim_passport_release_gate)
(assert (not release_gate_external_mirror_verified))
(check-sat)
(pop)

; Theorem: release gate records synchronized public docs.
(push)
(assert claim_passport_release_gate)
(assert (not release_gate_public_docs_synchronized))
(check-sat)
(pop)

; Theorem: release gate gives certified status.
(push)
(assert claim_passport_release_gate)
(assert (not release_gate_certified_status))
(check-sat)
(pop)

; Theorem: release gate gives allowed ceiling.
(push)
(assert claim_passport_release_gate)
(assert (not release_gate_allowed_ceiling))
(check-sat)
(pop)

; Theorem: release gate gives forbidden-jump map.
(push)
(assert claim_passport_release_gate)
(assert (not release_gate_forbidden_jump_map))
(check-sat)
(pop)

; Theorem: release gate gives release-candidate surface.
(push)
(assert claim_passport_release_gate)
(assert (not release_candidate_surface))
(check-sat)
(pop)

; Guard: claim object alone does not imply claim passport.
(push)
(assert claim_presented)
(assert (not claim_passport))
(check-sat)
(pop)

; Guard: evidence traces without TLFL classification do not imply claim passport.
(push)
(assert claim_presented)
(assert lean_kernel_trace)
(assert z3_trace)
(assert vampire_trace)
(assert e_trace)
(assert (not tlfl_classification_trace))
(assert (not claim_passport))
(check-sat)
(pop)

; Guard: claim passport does not imply empirical truth.
(push)
(assert claim_passport)
(assert (not empirical_truth))
(check-sat)
(pop)

; Guard: claim passport does not imply physical validation.
(push)
(assert claim_passport)
(assert (not physical_validation))
(check-sat)
(pop)

; Guard: claim passport does not imply consciousness.
(push)
(assert claim_passport)
(assert (not consciousness))
(check-sat)
(pop)

; Guard: claim passport does not imply empirical closure.
(push)
(assert claim_passport)
(assert (not empirical_closure))
(check-sat)
(pop)

; Guard: public certificate surface does not imply empirical truth.
(push)
(assert public_certificate_surface)
(assert (not empirical_truth))
(check-sat)
(pop)

; Guard: public certificate surface does not imply physical validation.
(push)
(assert public_certificate_surface)
(assert (not physical_validation))
(check-sat)
(pop)

; Guard: public certificate surface does not imply consciousness.
(push)
(assert public_certificate_surface)
(assert (not consciousness))
(check-sat)
(pop)

; Guard: public certificate surface does not imply empirical closure.
(push)
(assert public_certificate_surface)
(assert (not empirical_closure))
(check-sat)
(pop)

; Guard: claim-passport audit sheet does not imply empirical truth.
(push)
(assert claim_passport_audit_sheet)
(assert (not empirical_truth))
(check-sat)
(pop)

; Guard: claim-passport audit sheet does not imply physical validation.
(push)
(assert claim_passport_audit_sheet)
(assert (not physical_validation))
(check-sat)
(pop)

; Guard: claim-passport audit sheet does not imply consciousness.
(push)
(assert claim_passport_audit_sheet)
(assert (not consciousness))
(check-sat)
(pop)

; Guard: claim-passport audit sheet does not imply empirical closure.
(push)
(assert claim_passport_audit_sheet)
(assert (not empirical_closure))
(check-sat)
(pop)

; Guard: claim-passport review gate does not imply empirical truth.
(push)
(assert claim_passport_review_gate)
(assert (not empirical_truth))
(check-sat)
(pop)

; Guard: claim-passport review gate does not imply physical validation.
(push)
(assert claim_passport_review_gate)
(assert (not physical_validation))
(check-sat)
(pop)

; Guard: claim-passport review gate does not imply consciousness.
(push)
(assert claim_passport_review_gate)
(assert (not consciousness))
(check-sat)
(pop)

; Guard: claim-passport review gate does not imply empirical closure.
(push)
(assert claim_passport_review_gate)
(assert (not empirical_closure))
(check-sat)
(pop)

; Guard: claim-passport release gate does not imply empirical truth.
(push)
(assert claim_passport_release_gate)
(assert (not empirical_truth))
(check-sat)
(pop)

; Guard: claim-passport release gate does not imply physical validation.
(push)
(assert claim_passport_release_gate)
(assert (not physical_validation))
(check-sat)
(pop)

; Guard: claim-passport release gate does not imply consciousness.
(push)
(assert claim_passport_release_gate)
(assert (not consciousness))
(check-sat)
(pop)

; Guard: claim-passport release gate does not imply empirical closure.
(push)
(assert claim_passport_release_gate)
(assert (not empirical_closure))
(check-sat)
(pop)
